p edge 20 76
e 1 2
e 1 3
e 1 4
e 1 5
e 1 8
e 1 12
e 1 16
e 1 18
e 2 4
e 2 5
e 2 7
e 2 11
e 2 12
e 2 13
e 2 14
e 2 16
e 2 17
e 2 18
e 2 19
e 3 4
e 3 6
e 3 8
e 3 13
e 3 18
e 4 9
e 4 11
e 4 14
e 4 15
e 4 16
e 4 17
e 4 18
e 4 19
e 4 20
e 5 6
e 5 13
e 5 18
e 5 19
e 5 20
e 6 10
e 6 13
e 6 16
e 6 17
e 6 18
e 7 9
e 7 11
e 7 12
e 7 13
e 7 14
e 7 16
e 7 19
e 7 20
e 8 11
e 8 17
e 8 18
e 9 14
e 9 16
e 9 20
e 10 11
e 10 19
e 11 15
e 11 18
e 11 20
e 12 14
e 12 16
e 12 18
e 12 20
e 13 14
e 13 15
e 13 17
e 13 19
e 14 16
e 14 18
e 15 19
e 15 20
e 16 20
e 19 20